(set-logic QF_LIA)
(declare-fun x0 () Int)
(declare-fun x1 () Int)
(declare-fun x2 () Int)
(declare-fun x3 () Int)
(declare-fun x4 () Int)
(declare-fun x5 () Int)
(declare-fun x6 () Int)
(declare-fun x7 () Int)
(declare-fun x8 () Int)
(declare-fun x9 () Int)
(declare-fun A0 () Bool)
(declare-fun A1 () Bool)
(declare-fun A2 () Bool)
(declare-fun A3 () Bool)
(declare-fun A4 () Bool)
(declare-fun A5 () Bool)
(declare-fun A6 () Bool)
(declare-fun A7 () Bool)
(declare-fun A8 () Bool)
(declare-fun A9 () Bool)
(assert (let ((.def_0 (* 1 x4))) (let ((.def_1 (* (- 1) x7))) (let ((.def_2 (+ .def_1 .def_0))) (let ((.def_3 (< .def_2 1))) (let ((.def_4 (* (- 1) x0))) (let ((.def_5 (< .def_4 (- 1)))) (let ((.def_6 (and .def_5 .def_3))) (let ((.def_7 (not .def_6))) (let ((.def_8 (* 1 x6))) (let ((.def_9 (* 1 x7))) (let ((.def_10 (+ .def_9 .def_8))) (let ((.def_11 (< .def_10 1))) (let ((.def_12 (and A6 .def_11))) (let ((.def_13 (or .def_12 .def_7))) (let ((.def_14 (not .def_13))) (let ((.def_15 (* 1 x9))) (let ((.def_16 (< .def_15 1))) (let ((.def_17 (* (- 1) x9))) (let ((.def_18 (< .def_17 (- 1)))) (let ((.def_19 (not .def_18))) (let ((.def_20 (and .def_19 .def_16))) (let ((.def_21 (* (- 1) x5))) (let ((.def_22 (+ .def_9 .def_21))) (let ((.def_23 (< .def_22 1))) (let ((.def_24 (not .def_23))) (let ((.def_25 (< .def_10 (- 1)))) (let ((.def_26 (and .def_25 .def_24))) (let ((.def_27 (and .def_26 .def_20))) (let ((.def_28 (not .def_27))) (let ((.def_29 (= .def_28 .def_14))) (let ((.def_30 (not A8))) (let ((.def_31 (or A7 .def_30))) (let ((.def_32 (< .def_9 (- 1)))) (let ((.def_33 (and .def_32 A3))) (let ((.def_34 (= .def_33 .def_31))) (let ((.def_35 (* 1 x1))) (let ((.def_36 (+ .def_0 .def_35))) (let ((.def_37 (< .def_36 (- 1)))) (let ((.def_38 (not A0))) (let ((.def_39 (and .def_38 .def_37))) (let ((.def_40 (* (- 1) x2))) (let ((.def_41 (< .def_40 (- 1)))) (let ((.def_42 (* 1 x3))) (let ((.def_43 (< .def_42 1))) (let ((.def_44 (= .def_43 .def_41))) (let ((.def_45 (not .def_44))) (let ((.def_46 (or .def_45 .def_39))) (let ((.def_47 (and .def_46 .def_34))) (let ((.def_48 (and .def_47 .def_29))) (let ((.def_49 (not .def_48))) (let ((.def_50 (and A5 A2))) (let ((.def_51 (< .def_35 1))) (let ((.def_52 (not .def_51))) (let ((.def_53 (not A5))) (let ((.def_54 (or .def_53 .def_52))) (let ((.def_55 (or .def_54 .def_50))) (let ((.def_56 (not .def_55))) (let ((.def_57 (not A1))) (let ((.def_58 (* 1 x2))) (let ((.def_59 (< .def_58 (- 1)))) (let ((.def_60 (not .def_59))) (let ((.def_61 (or .def_60 .def_57))) (let ((.def_62 (not .def_61))) (let ((.def_63 (not A9))) (let ((.def_64 (and .def_63 .def_16))) (let ((.def_65 (not .def_64))) (let ((.def_66 (or .def_65 .def_62))) (let ((.def_67 (and .def_66 .def_56))) (let ((.def_68 (* 1 x0))) (let ((.def_69 (+ .def_68 .def_0))) (let ((.def_70 (< .def_69 1))) (let ((.def_71 (and .def_70 A6))) (let ((.def_72 (+ .def_68 .def_8))) (let ((.def_73 (< .def_72 (- 1)))) (let ((.def_74 (not .def_73))) (let ((.def_75 (+ .def_58 .def_42))) (let ((.def_76 (< .def_75 1))) (let ((.def_77 (and .def_76 .def_74))) (let ((.def_78 (or .def_77 .def_71))) (let ((.def_79 (not .def_78))) (let ((.def_80 (* (- 1) x4))) (let ((.def_81 (+ .def_80 .def_42))) (let ((.def_82 (< .def_81 (- 1)))) (let ((.def_83 (= .def_57 .def_82))) (let ((.def_84 (< .def_17 1))) (let ((.def_85 (not .def_84))) (let ((.def_86 (and .def_30 .def_85))) (let ((.def_87 (or .def_86 .def_83))) (let ((.def_88 (and .def_87 .def_79))) (let ((.def_89 (not .def_88))) (let ((.def_90 (and .def_89 .def_67))) (let ((.def_91 (not .def_90))) (let ((.def_92 (or .def_91 .def_49))) (let ((.def_93 (not .def_92))) (let ((.def_94 (+ .def_1 .def_17))) (let ((.def_95 (< .def_94 (- 1)))) (let ((.def_96 (not .def_95))) (let ((.def_97 (= .def_96 A8))) (let ((.def_98 (not .def_97))) (let ((.def_99 (and A7 .def_57))) (let ((.def_100 (or .def_99 .def_98))) (let ((.def_101 (not .def_100))) (let ((.def_102 (* (- 1) x8))) (let ((.def_103 (< .def_102 (- 1)))) (let ((.def_104 (< .def_8 1))) (let ((.def_105 (not .def_104))) (let ((.def_106 (or .def_105 .def_103))) (let ((.def_107 (not .def_106))) (let ((.def_108 (not A2))) (let ((.def_109 (and .def_108 A4))) (let ((.def_110 (not .def_109))) (let ((.def_111 (or .def_110 .def_107))) (let ((.def_112 (not .def_111))) (let ((.def_113 (and .def_112 .def_101))) (let ((.def_114 (* (- 1) x1))) (let ((.def_115 (+ .def_42 .def_114))) (let ((.def_116 (< .def_115 (- 1)))) (let ((.def_117 (or .def_116 .def_32))) (let ((.def_118 (+ .def_40 .def_102))) (let ((.def_119 (< .def_118 (- 1)))) (let ((.def_120 (or .def_38 .def_119))) (let ((.def_121 (not .def_120))) (let ((.def_122 (or .def_121 .def_117))) (let ((.def_123 (not A4))) (let ((.def_124 (and A5 .def_123))) (let ((.def_125 (not .def_124))) (let ((.def_126 (not A3))) (let ((.def_127 (= .def_126 .def_126))) (let ((.def_128 (not .def_127))) (let ((.def_129 (or .def_128 .def_125))) (let ((.def_130 (not .def_129))) (let ((.def_131 (or .def_130 .def_122))) (let ((.def_132 (not .def_131))) (let ((.def_133 (and .def_132 .def_113))) (let ((.def_134 (not .def_133))) (let ((.def_135 (< .def_21 (- 1)))) (let ((.def_136 (and .def_53 .def_135))) (let ((.def_137 (+ .def_42 .def_21))) (let ((.def_138 (< .def_137 (- 1)))) (let ((.def_139 (or .def_138 .def_53))) (let ((.def_140 (not .def_139))) (let ((.def_141 (or .def_140 .def_136))) (let ((.def_142 (not .def_141))) (let ((.def_143 (< .def_40 1))) (let ((.def_144 (not .def_143))) (let ((.def_145 (or A0 .def_144))) (let ((.def_146 (not .def_145))) (let ((.def_147 (+ .def_102 .def_8))) (let ((.def_148 (< .def_147 1))) (let ((.def_149 (not .def_148))) (let ((.def_150 (and .def_30 .def_149))) (let ((.def_151 (not .def_150))) (let ((.def_152 (or .def_151 .def_146))) (let ((.def_153 (not .def_152))) (let ((.def_154 (or .def_153 .def_142))) (let ((.def_155 (< .def_68 (- 1)))) (let ((.def_156 (* 1 x5))) (let ((.def_157 (+ .def_156 .def_9))) (let ((.def_158 (< .def_157 1))) (let ((.def_159 (not .def_158))) (let ((.def_160 (or .def_159 .def_155))) (let ((.def_161 (not .def_160))) (let ((.def_162 (= .def_123 .def_25))) (let ((.def_163 (not .def_162))) (let ((.def_164 (= .def_163 .def_161))) (let ((.def_165 (+ .def_8 .def_58))) (let ((.def_166 (< .def_165 1))) (let ((.def_167 (or A0 .def_166))) (let ((.def_168 (not .def_167))) (let ((.def_169 (+ .def_114 .def_68))) (let ((.def_170 (< .def_169 (- 1)))) (let ((.def_171 (< .def_8 (- 1)))) (let ((.def_172 (not .def_171))) (let ((.def_173 (or .def_172 .def_170))) (let ((.def_174 (not .def_173))) (let ((.def_175 (= .def_174 .def_168))) (let ((.def_176 (not .def_175))) (let ((.def_177 (or .def_176 .def_164))) (let ((.def_178 (not .def_177))) (let ((.def_179 (and .def_178 .def_154))) (let ((.def_180 (or .def_179 .def_134))) (let ((.def_181 (not .def_180))) (let ((.def_182 (and .def_181 .def_93))) (let ((.def_183 (not .def_182))) (let ((.def_184 (<= x9 1))) (let ((.def_185 (<= 0 x9))) (let ((.def_186 (<= x8 1))) (let ((.def_187 (<= 0 x8))) (let ((.def_188 (<= x7 1))) (let ((.def_189 (<= 0 x7))) (let ((.def_190 (<= x6 1))) (let ((.def_191 (<= 0 x6))) (let ((.def_192 (<= x5 1))) (let ((.def_193 (<= 0 x5))) (let ((.def_194 (<= x4 1))) (let ((.def_195 (<= 0 x4))) (let ((.def_196 (<= x3 1))) (let ((.def_197 (<= 0 x3))) (let ((.def_198 (<= x2 1))) (let ((.def_199 (<= 0 x2))) (let ((.def_200 (<= x1 1))) (let ((.def_201 (<= 0 x1))) (let ((.def_202 (<= x0 1))) (let ((.def_203 (<= 0 x0))) (let ((.def_204 (and .def_203 .def_202 .def_201 .def_200 .def_199 .def_198 .def_197 .def_196 .def_195 .def_194 .def_193 .def_192 .def_191 .def_190 .def_189 .def_188 .def_187 .def_186 .def_185 .def_184 .def_183))) .def_204))))))))))))))))))))))))))))))))))))))))))))))))))))))))))))))))))))))))))))))))))))))))))))))))))))))))))))))))))))))))))))))))))))))))))))))))))))))))))))))))))))))))))))))))))))))))))))))))))))))))))))))
(check-sat)
